0 48 
1 50 
2 53 
3 48 
4 45 
5 45 
6 46 
7 50 
8 47 
9 50 
10 47 
11 44 
12 42 
13 39 
14 35 
15 39 
16 38 
17 37 
18 40 
19 38 
20 36 
21 38 
22 38 
23 39 
24 38 
25 38 
26 35 
27 37 
28 35 
29 31 
30 30 
31 28 
32 26 
33 26 
34 26 
35 27 
36 22 
37 21 
38 18 
39 15 
40 13 
41 13 
42 13 
43 11 
44 10 
45 9 
46 7 
47 6 
48 5 
49 5 
50 3 
51 1 
52 0 
53 0 

